instances/noordins.gr
c The largest connected component in this graph has 78 vertices and treewidth >= 19
p tw 79 1246
1 16
2 5
2 6
2 17
2 22
2 23
2 24
2 28
2 33
2 40
2 41
2 46
2 51
2 52
2 67
2 70
2 71
2 72
2 73
2 75
3 6
3 13
3 31
3 59
4 13
4 14
4 16
4 20
4 21
4 27
4 28
4 29
4 34
4 35
4 36
4 42
4 49
4 53
4 54
4 57
4 59
4 60
4 65
4 70
4 73
4 75
4 76
4 78
4 79
5 2
5 6
5 7
5 11
5 13
5 15
5 17
5 22
5 23
5 24
5 28
5 31
5 33
5 38
5 40
5 44
5 46
5 48
5 51
5 52
5 59
5 63
5 67
5 68
5 70
5 71
5 72
5 73
5 79
6 2
6 3
6 5
6 11
6 13
6 22
6 23
6 24
6 31
6 33
6 40
6 46
6 48
6 51
6 52
6 67
6 68
6 70
6 71
6 72
6 73
6 79
7 5
7 17
7 23
7 28
7 31
7 33
7 40
7 44
7 52
7 59
7 61
7 70
7 79
8 10
8 11
8 12
8 19
8 23
8 24
8 25
8 35
8 37
8 38
8 42
8 43
8 45
8 55
8 59
8 60
8 67
8 68
8 70
8 73
8 74
8 77
8 78
9 16
10 8
10 11
10 12
10 19
10 23
10 24
10 25
10 35
10 37
10 38
10 42
10 43
10 45
10 55
10 59
10 61
10 68
10 70
10 73
10 74
10 77
10 78
11 5
11 6
11 8
11 10
11 33
11 38
11 55
11 59
11 61
11 68
11 78
12 8
12 10
12 19
12 23
12 24
12 25
12 30
12 35
12 37
12 38
12 42
12 43
12 45
12 59
12 62
12 68
12 73
12 74
12 77
13 3
13 4
13 5
13 6
13 21
13 23
13 24
13 29
13 31
13 34
13 39
13 45
13 46
13 47
13 48
13 53
13 56
13 59
13 60
13 73
13 75
13 78
14 4
15 5
16 1
16 4
16 9
16 28
16 29
16 53
16 59
16 78
17 2
17 5
17 7
17 23
17 28
17 31
17 33
17 40
17 41
17 44
17 50
17 51
17 52
17 59
17 64
17 71
17 72
17 75
17 79
18 23
18 24
18 46
18 50
18 59
18 64
18 69
19 8
19 10
19 12
19 23
19 24
19 25
19 35
19 37
19 38
19 42
19 43
19 45
19 59
19 66
19 68
19 70
19 73
19 74
19 77
20 4
20 21
20 27
20 34
20 53
20 54
20 57
20 65
20 70
20 76
20 79
21 4
21 13
21 20
21 27
21 29
21 34
21 35
21 36
21 53
21 54
21 60
21 65
21 70
21 76
21 79
22 2
22 5
22 6
22 23
22 24
22 33
22 44
22 46
22 51
22 52
22 59
22 67
22 68
22 70
22 71
22 72
22 73
23 2
23 5
23 6
23 7
23 8
23 10
23 12
23 13
23 17
23 18
23 19
23 22
23 24
23 25
23 26
23 28
23 31
23 32
23 33
23 35
23 37
23 38
23 39
23 40
23 41
23 42
23 43
23 44
23 45
23 46
23 50
23 51
23 52
23 59
23 61
23 64
23 67
23 68
23 69
23 71
23 72
23 73
23 74
23 75
23 77
23 78
23 79
24 2
24 5
24 6
24 8
24 10
24 12
24 13
24 18
24 19
24 22
24 23
24 25
24 35
24 37
24 38
24 42
24 43
24 45
24 46
24 50
24 51
24 52
24 59
24 64
24 67
24 68
24 69
24 70
24 71
24 73
24 74
24 77
25 8
25 10
25 12
25 19
25 23
25 24
25 35
25 37
25 38
25 42
25 43
25 45
25 46
25 59
25 68
25 73
25 74
25 77
26 23
26 38
26 46
26 59
26 61
27 4
27 20
27 21
27 34
27 53
27 54
27 59
27 65
27 70
27 75
27 76
27 79
28 2
28 4
28 5
28 7
28 16
28 17
28 23
28 29
28 31
28 33
28 34
28 40
28 41
28 44
28 49
28 51
28 52
28 53
28 59
28 65
28 71
28 72
28 75
28 79
29 4
29 13
29 16
29 21
29 28
29 35
29 36
29 43
29 45
29 53
29 59
29 60
29 62
29 66
29 75
30 12
30 62
31 3
31 5
31 6
31 7
31 13
31 17
31 23
31 28
31 33
31 40
31 44
31 46
31 51
31 52
31 59
31 68
31 71
31 72
31 79
32 23
32 45
32 59
32 62
33 2
33 5
33 6
33 7
33 11
33 17
33 22
33 23
33 28
33 31
33 40
33 41
33 44
33 46
33 51
33 52
33 59
33 67
33 71
33 72
33 75
34 4
34 13
34 20
34 21
34 27
34 28
34 42
34 47
34 49
34 53
34 54
34 60
34 65
34 70
34 73
34 75
34 76
34 78
34 79
35 4
35 8
35 10
35 12
35 19
35 21
35 23
35 24
35 25
35 29
35 36
35 37
35 38
35 42
35 43
35 45
35 53
35 59
35 60
35 68
35 73
35 74
35 77
36 4
36 21
36 29
36 35
36 53
36 60
37 8
37 10
37 12
37 19
37 23
37 24
37 25
37 35
37 38
37 42
37 43
37 45
37 59
37 66
37 68
37 70
37 73
37 74
37 77
38 5
38 8
38 10
38 11
38 12
38 19
38 23
38 24
38 25
38 26
38 35
38 37
38 42
38 43
38 45
38 46
38 59
38 61
38 68
38 73
38 74
38 77
38 78
39 13
39 23
39 43
39 45
39 46
39 56
39 59
39 63
40 2
40 5
40 6
40 7
40 17
40 23
40 28
40 31
40 33
40 41
40 43
40 44
40 51
40 52
40 59
40 71
40 72
40 75
40 79
41 2
41 17
41 23
41 28
41 33
41 40
41 51
41 72
41 75
42 4
42 8
42 10
42 12
42 19
42 23
42 24
42 25
42 34
42 35
42 37
42 38
42 43
42 45
42 59
42 60
42 68
42 73
42 74
42 77
43 8
43 10
43 12
43 19
43 23
43 24
43 25
43 29
43 35
43 37
43 38
43 39
43 40
43 42
43 45
43 59
43 62
43 66
43 68
43 73
43 74
43 77
44 5
44 7
44 17
44 22
44 23
44 28
44 31
44 33
44 40
44 51
44 52
44 59
44 61
44 67
44 71
44 72
44 79
45 8
45 10
45 12
45 13
45 19
45 23
45 24
45 25
45 29
45 32
45 35
45 37
45 38
45 39
45 42
45 43
45 46
45 56
45 59
45 62
45 63
45 64
45 66
45 67
45 68
45 70
45 73
45 74
45 77
45 78
46 2
46 5
46 6
46 13
46 18
46 22
46 23
46 24
46 25
46 26
46 31
46 33
46 38
46 39
46 45
46 50
46 51
46 52
46 59
46 64
46 67
46 69
46 70
46 71
46 73
47 13
47 34
47 48
47 59
47 60
48 5
48 6
48 13
48 47
48 59
48 68
49 4
49 28
49 34
49 53
49 65
49 75
50 17
50 18
50 23
50 24
50 46
50 59
50 64
50 69
51 2
51 5
51 6
51 17
51 22
51 23
51 24
51 28
51 31
51 33
51 40
51 41
51 44
51 46
51 52
51 59
51 67
51 68
51 70
51 71
51 72
51 73
51 75
52 2
52 5
52 6
52 7
52 17
52 22
52 23
52 24
52 28
52 31
52 33
52 40
52 44
52 46
52 51
52 59
52 67
52 68
52 70
52 71
52 72
52 73
52 79
53 4
53 13
53 16
53 20
53 21
53 27
53 28
53 29
53 34
53 35
53 36
53 49
53 54
53 59
53 60
53 65
53 70
53 75
53 76
53 79
54 4
54 20
54 21
54 27
54 34
54 53
54 65
54 70
54 76
54 79
55 8
55 10
55 11
55 59
56 13
56 39
56 45
57 4
57 20
59 3
59 4
59 5
59 7
59 8
59 10
59 11
59 12
59 13
59 16
59 17
59 18
59 19
59 22
59 23
59 24
59 25
59 26
59 27
59 28
59 29
59 31
59 32
59 33
59 35
59 37
59 38
59 39
59 40
59 42
59 43
59 44
59 45
59 46
59 47
59 48
59 50
59 51
59 52
59 53
59 55
59 60
59 61
59 64
59 66
59 67
59 68
59 69
59 70
59 71
59 72
59 73
59 74
59 77
59 78
60 4
60 8
60 13
60 21
60 29
60 34
60 35
60 36
60 42
60 47
60 53
60 59
60 73
60 78
61 7
61 10
61 11
61 23
61 26
61 38
61 44
61 59
61 78
62 12
62 29
62 30
62 32
62 43
62 45
62 66
63 5
63 39
63 45
63 78
64 17
64 18
64 23
64 24
64 45
64 46
64 50
64 59
64 69
65 4
65 20
65 21
65 27
65 28
65 34
65 49
65 53
65 54
65 70
65 75
65 76
65 79
66 19
66 29
66 37
66 43
66 45
66 59
66 62
66 70
66 73
66 74
66 77
67 2
67 5
67 6
67 8
67 22
67 23
67 24
67 33
67 44
67 45
67 46
67 51
67 52
67 59
67 70
67 71
67 72
67 73
67 77
68 5
68 6
68 8
68 10
68 11
68 12
68 19
68 22
68 23
68 24
68 25
68 31
68 35
68 37
68 38
68 42
68 43
68 45
68 48
68 51
68 52
68 59
68 70
68 71
68 72
68 73
68 74
68 75
68 77
68 78
69 18
69 23
69 24
69 46
69 50
69 59
69 64
70 2
70 4
70 5
70 6
70 7
70 8
70 10
70 19
70 20
70 21
70 22
70 24
70 27
70 34
70 37
70 45
70 46
70 51
70 52
70 53
70 54
70 59
70 65
70 66
70 67
70 68
70 71
70 73
70 74
70 76
70 77
70 78
70 79
71 2
71 5
71 6
71 17
71 22
71 23
71 24
71 28
71 31
71 33
71 40
71 44
71 46
71 51
71 52
71 59
71 67
71 68
71 70
71 72
71 73
72 2
72 5
72 6
72 17
72 22
72 23
72 28
72 31
72 33
72 40
72 41
72 44
72 51
72 52
72 59
72 67
72 68
72 71
72 75
73 2
73 4
73 5
73 6
73 8
73 10
73 12
73 13
73 19
73 22
73 23
73 24
73 25
73 34
73 35
73 37
73 38
73 42
73 43
73 45
73 46
73 51
73 52
73 59
73 60
73 66
73 67
73 68
73 70
73 71
73 74
73 77
73 78
74 8
74 10
74 12
74 19
74 23
74 24
74 25
74 35
74 37
74 38
74 42
74 43
74 45
74 59
74 66
74 68
74 70
74 73
74 77
75 2
75 4
75 13
75 17
75 23
75 27
75 28
75 29
75 33
75 34
75 40
75 41
75 49
75 51
75 53
75 65
75 68
75 72
76 4
76 20
76 21
76 27
76 34
76 53
76 54
76 65
76 70
76 79
77 8
77 10
77 12
77 19
77 23
77 24
77 25
77 35
77 37
77 38
77 42
77 43
77 45
77 59
77 66
77 67
77 68
77 70
77 73
77 74
78 4
78 8
78 10
78 11
78 13
78 16
78 23
78 34
78 38
78 45
78 59
78 60
78 61
78 63
78 68
78 70
78 73
79 4
79 5
79 6
79 7
79 17
79 20
79 21
79 23
79 27
79 28
79 31
79 34
79 40
79 44
79 52
79 53
79 54
79 65
79 70
79 76