instances/noordins.td
c Decomposition from Toto database
c graph6 ~?@M`Kpp{z\P}fjHVMyF~x~zMy[y`x~zx}|sz`}HVgOO??BKGFFV[rT~^zgA?eg???@??@?G??CCg??GbY?_?jG?OCsm?W?GXO???@I_K?CKE?C?CGGOC@DZ}_??_DsG???@O????HX^O?OCOmb_??G@\BIA?HJ@?O\SSAm`eDVD?o??GoO?A??AA???????CWOGOD?QDvMoo??KB???g????_?????A?EwL{oD?Qg@??@??@Z?B?XA?gQSOB?HA?gAS[@_?`?S?AJ?W@GOD??awBA@A?g?CV_K?cGA_?P^?X?GOT??a~?WRHOT?Oe~_???G??@?W?B?HA?g?CV}?WBGOD??a~t???????????????????@??????A???@EC@@?D????OB????@OGA?G??????G?????A@?kG?G???????@WO?O?????O@?WO?O??????@_KG?G???????w??HAA????mq??OO?O???`????@??@?????@@??
s td 46 23 78
b 1 4 5 6 8 9 10 12 14 17 18 21 22 24 26 32 34 36 44 45 49 53 55 56
b 2 4 5 6 8 9 10 11 12 14 17 18 21 22 24 26 44 45 46 49 50 53 55 56
b 3 4 5 6 8 9 10 11 12 14 17 18 21 22 24 25 26 45 46 50 53
b 4 4 5 6 8 9 10 11 12 14 16 17 18 21 22 25 26 45 46 50 53
b 5 3 4 5 6 8 9 10 11 12 14 15 16 17 18 20 21 22 25 26 50 53
b 6 3 4 5 6 8 9 10 11 12 14 15 16 17 18 19 20 21 25 26 50 53
b 7 4 6 8 9 12 14 17 18 21 24 26 32 34 36 44 49 53 55 56 61
b 8 4 6 8 9 14 17 18 21 24 26 32 34 36 44 49 53 55 56 61 62
b 9 3 4 5 7 8 9 11 14 15 16 17 18 19 20 21 26 50 53
b 10 4 5 8 11 14 26 44 46 47 49 50 53 55 56
b 11 4 5 10 18 21 22 24 26 32 34 36 41 44 45 53 55
b 12 4 5 10 18 21 22 24 26 32 33 34 36 41 44 45 53
b 13 10 18 21 22 24 26 27 32 33 34 36 41 44 45
b 14 10 18 22 24 26 27 32 33 34 38 41 44 45
b 15 10 18 22 24 26 27 30 32 33 34 38 41 45
b 16 8 14 26 44 46 47 49 50 54 56
b 17 8 9 14 17 18 21 26 32 34 36 49 53 55 56 61 62 65
b 18 8 9 14 18 21 26 32 34 36 49 53 55 56 57 58 60 61 62 64 65
b 19 8 9 14 21 26 34 36 49 53 55 56 57 58 59 60 61 62 64 65
b 20 8 18 21 26 32 57 58 60 61 62 64 65 76
b 21 4 5 24 26 33 41 51 53
b 22 10 18 22 26 27 30 31 33 38 45
b 23 10 18 22 27 30 31 33 38 42 45
b 24 4 8 14 24 26 44 61 62 69
b 25 8 26 32 57 61 62 68 76
b 26 4 44 52 62 69
b 27 24 26 33 41 51 70
b 28 2 10 26 27 32 38 44
b 29 8 26 62 68 78
b 30 6 8 9 14 26 62 73
b 31 6 8 9 14 26 72 73
b 32 8 14 26 49 54 77
b 33 5 23 24 25 26
b 34 8 9 14 26 72 73 74 75
b 35 24 62 69 71
b 36 57 67 68
b 37 2 66
b 38 26 47 55 56 63
b 39 4 48
b 40 27 29 40
b 41 18 27 29 30 31 33 38 39 42 43 45
b 42 10 22 27 33 37 38 42
b 43 27 30 32 34 35 38 41
b 44 27 28
b 45 3 6 8 10 11 12 13 15 20 22
b 46 1 2
1 7
1 11
1 2
2 3
2 10
2 39
3 4
3 33
4 5
5 6
5 45
6 9
7 8
8 17
8 24
8 30
10 16
10 38
11 12
12 13
12 21
13 14
13 44
14 15
14 28
15 22
15 43
16 32
17 18
18 19
18 20
20 25
21 27
22 23
23 42
23 41
24 26
24 35
25 29
25 36
28 37
28 46
30 31
31 34
40 41
